c   #vars: 125   #clauses: 575   #literals: 1564
c 
p cnf 125 575
4 42 43 -65 0
-2 -3 0
2 3 5 -30 0
14 -77 85 86 0
-6 -7 0
-8 -9 0
-10 -11 0
-12 -13 0
19 -60 109 110 0
21 22 100 101 0
-15 -16 0
-17 -18 0
20 73 74 -104 0
23 106 107 -115 0
-21 -22 0
50 53 54 -75 0
-24 -25 0
-26 -27 0
-28 -29 0
-30 -31 0
-32 -33 0
-34 -35 0
-36 -37 0
-38 -39 0
-40 -41 0
-42 -43 0
-44 -45 0
-46 -47 0
-48 -49 0
53 54 91 -92 0
-51 -52 0
-53 -54 0
-55 -56 0
-57 -58 0
-59 -60 0
21 22 40 41 0
21 22 73 74 0
-61 -62 0
-63 -64 0
-65 -66 0
-67 -68 0
-69 -70 0
-71 -72 0
-73 -74 0
-75 -76 0
-77 -78 0
-79 -80 0
-81 -82 0
-83 -84 0
-85 -86 0
-87 -88 0
-89 -90 0
106 107 108 -116 0
-92 -93 0
-94 -95 0
-96 -97 0
-98 -99 0
-100 -101 0
-102 -103 0
-104 -105 0
-106 -107 0
-47 59 60 115 0
-109 -110 0
15 16 89 90 0
-111 -112 0
-113 -114 0
21 22 79 80 0
75 76 89 90 0
73 74 89 90 0
24 25 122 123 0
-116 -117 0
14 65 66 -85 0
-118 -119 0
-120 -121 0
-122 -123 0
6 7 81 82 0
-124 -125 0
38 39 100 101 0
4 -10 42 43 0
-1 -9 0
51 52 98 99 0
4 10 11 -65 0
-1 -22 0
4 10 11 -42 0
-1 -121 0
1 21 22 -120 0
14 -65 85 86 0
-3 -5 0
10 11 98 99 0
-2 -40 0
-3 -41 0
-2 -48 0
-3 -49 0
63 64 122 123 0
-2 -61 0
-3 -62 0
-2 -65 0
-3 -66 0
42 43 48 49 0
2 3 5 -19 0
-4 -11 0
36 37 85 86 0
20 -73 104 105 0
-4 -43 0
5 -19 30 31 0
20 -83 104 105 0
-4 -66 0
30 31 87 88 0
14 77 78 -85 0
20 73 74 -83 0
24 25 100 101 0
14 -65 77 78 0
-5 -31 0
8 9 98 99 0
-6 -15 0
-7 -16 0
23 -47 -106 115 0
-6 -28 0
-7 -29 0
-6 -34 0
-7 -35 0
-6 -57 0
-7 -58 0
81 82 92 93 0
-6 -81 0
-7 -82 0
-6 -104 0
-7 -105 0
87 88 116 117 0
-8 -24 0
-9 -25 0
8 9 24 25 0
-8 -30 0
-9 -31 0
4 -10 65 66 0
-8 -61 0
-9 -62 0
92 93 118 119 0
-8 -98 0
-9 -99 0
26 27 36 37 0
-10 -15 0
-11 -16 0
21 22 44 45 0
-10 -46 0
-11 -47 0
104 105 120 121 0
-10 -57 0
-11 -58 0
17 18 118 119 0
-10 -98 0
-11 -99 0
30 31 111 112 0
51 52 57 58 0
-12 -51 0
-13 -52 0
48 49 113 114 0
-12 -67 0
-13 -68 0
30 31 83 84 0
-12 -75 0
-13 -76 0
42 43 71 72 0
-12 -122 0
-13 -123 0
5 19 -30 -110 0
-5 19 109 110 0
-14 -66 0
40 41 63 64 0
19 59 60 -110 0
-14 -78 0
-5 19 59 60 0
-14 -86 0
4 -42 65 66 0
71 72 102 103 0
-15 -17 0
-16 -18 0
-15 -42 0
-16 -43 0
15 16 42 43 0
-15 -65 0
-16 -66 0
-15 -89 0
-16 -90 0
42 43 106 107 0
8 9 30 31 0
1 8 9 -120 0
48 49 124 125 0
-17 -94 0
-18 -95 0
73 74 77 78 0
-17 -102 0
-18 -103 0
-17 -118 0
-18 -119 0
-19 -59 0
20 83 84 -104 0
48 49 96 97 0
-19 -109 0
20 -73 83 84 0
34 35 61 62 0
23 -48 106 107 0
-20 -74 0
-20 -84 0
57 58 116 117 0
-20 -105 0
32 33 73 74 0
-21 -40 0
-22 -41 0
26 27 122 123 0
-21 -44 0
-22 -45 0
30 31 100 101 0
-21 -57 0
-22 -58 0
75 76 85 86 0
-21 -73 0
-22 -74 0
-21 -79 0
-22 -80 0
61 62 116 117 0
-21 -100 0
-22 -101 0
61 62 71 72 0
38 39 102 103 0
-36 50 53 54 0
-23 -49 0
55 56 81 82 0
36 37 50 -75 0
-23 -107 0
30 31 96 97 0
36 37 50 -53 0
24 25 38 39 0
-24 -38 0
-25 -39 0
38 39 83 84 0
-24 -48 0
-25 -49 0
38 39 67 68 0
-24 -100 0
-25 -101 0
79 80 113 114 0
-24 -116 0
-25 -117 0
26 27 116 117 0
-24 -122 0
-25 -123 0
26 27 32 33 0
-26 -32 0
-27 -33 0
28 29 44 45 0
-26 -36 0
-27 -37 0
32 33 44 45 0
-26 -113 0
-27 -114 0
44 45 113 114 0
-26 -116 0
-27 -117 0
10 11 57 58 0
-26 -122 0
-27 -123 0
63 64 65 66 0
-28 -44 0
-29 -45 0
2 3 65 66 0
-28 -75 0
-29 -76 0
2 3 48 49 0
-28 -79 0
-29 -80 0
10 11 46 47 0
-30 -32 0
-31 -33 0
59 60 87 88 0
-30 -83 0
-31 -84 0
87 88 96 97 0
-30 -87 0
-31 -88 0
81 82 106 107 0
-30 -96 0
-31 -97 0
24 25 116 117 0
-30 -100 0
-31 -101 0
6 7 15 16 0
-30 -111 0
-31 -112 0
1 -8 21 22 0
-32 -44 0
-33 -45 0
-32 -67 0
-33 -68 0
26 27 113 114 0
-32 -73 0
-33 -74 0
14 65 66 -77 0
-34 -61 0
-35 -62 0
-23 59 60 115 0
-35 -108 0
-36 50 75 76 0
-34 -124 0
-35 -125 0
69 70 120 121 0
53 54 -63 91 0
-37 -50 0
-36 -85 0
-37 -86 0
63 64 120 121 0
-36 -111 0
-37 -112 0
40 41 59 60 0
-38 -61 0
-39 -62 0
28 29 75 76 0
-38 -67 0
-39 -68 0
87 88 92 93 0
-38 -83 0
-39 -84 0
2 3 40 41 0
-38 -100 0
-39 -101 0
40 41 71 72 0
-38 -102 0
-39 -103 0
32 33 67 68 0
-40 -59 0
-41 -60 0
73 74 118 119 0
-40 -63 0
-41 -64 0
51 52 113 114 0
-40 -69 0
-41 -70 0
5 19 -30 -60 0
-40 -71 0
-41 -72 0
-42 -48 0
-43 -49 0
109 110 113 114 0
-42 -71 0
-43 -72 0
51 52 118 119 0
-42 -100 0
-43 -101 0
55 56 109 110 0
-42 -106 0
-43 -107 0
83 84 124 125 0
-42 -109 0
-43 -110 0
12 13 122 123 0
-44 -113 0
-45 -114 0
46 47 53 54 0
-46 -48 0
-47 -49 0
53 54 77 78 0
-46 -53 0
-47 -54 0
-106 108 116 117 0
-46 -109 0
-47 -110 0
102 103 124 125 0
-46 -115 0
23 -48 -60 115 0
-48 -96 0
-49 -97 0
21 22 57 58 0
-48 -113 0
-49 -114 0
6 7 34 35 0
-48 -124 0
-49 -125 0
85 86 102 103 0
-63 91 92 93 0
-50 -54 0
55 56 69 70 0
-53 91 92 93 0
-50 -76 0
38 39 61 62 0
-51 -57 0
-52 -58 0
1 -21 120 121 0
-51 -98 0
-52 -99 0
8 9 61 62 0
-51 -113 0
-52 -114 0
79 80 100 101 0
-51 -118 0
-52 -119 0
2 3 61 62 0
-51 -122 0
-52 -123 0
28 29 79 80 0
-53 -77 0
-54 -78 0
111 112 120 121 0
-34 106 107 108 0
-54 -91 0
55 56 98 99 0
-53 -113 0
-54 -114 0
-55 -57 0
-56 -58 0
-2 5 19 -60 0
-55 -69 0
-56 -70 0
23 -60 -106 115 0
-55 -81 0
-56 -82 0
77 78 102 103 0
-55 -98 0
-56 -99 0
-55 -109 0
-56 -110 0
89 90 104 105 0
-57 -89 0
-58 -90 0
10 11 15 16 0
-57 -111 0
-58 -112 0
65 66 120 121 0
-57 -116 0
-58 -117 0
67 68 69 70 0
-59 -87 0
-60 -88 0
-53 63 64 91 0
-59 -115 0
12 13 67 68 0
-59 -120 0
-60 -121 0
23 48 49 -106 0
94 95 104 105 0
15 16 65 66 0
-61 -63 0
-62 -64 0
-2 5 19 -110 0
-61 -71 0
-62 -72 0
65 66 67 68 0
-61 -116 0
-62 -117 0
42 43 100 101 0
-63 -65 0
-64 -66 0
59 60 120 121 0
-63 -83 0
-64 -84 0
34 35 108 -116 0
-64 -91 0
111 112 124 125 0
-63 -104 0
-64 -105 0
51 52 122 123 0
-63 -120 0
-64 -121 0
-63 -122 0
-64 -123 0
12 13 75 76 0
-65 -67 0
-66 -68 0
100 101 111 112 0
-65 -120 0
-66 -121 0
12 13 51 52 0
-67 -69 0
-68 -70 0
23 48 49 -115 0
-69 -120 0
-70 -121 0
6 7 57 58 0
-71 -102 0
-72 -103 0
-73 -77 0
-74 -78 0
85 86 94 95 0
-73 -89 0
-74 -90 0
-2 5 30 31 0
-73 -118 0
-74 -119 0
-75 -85 0
-76 -86 0
63 64 83 84 0
-75 -89 0
-76 -90 0
106 107 116 117 0
-77 -102 0
-78 -103 0
61 62 63 64 0
-79 -100 0
-80 -101 0
46 47 48 49 0
-79 -113 0
-80 -114 0
96 97 102 103 0
-81 -92 0
-82 -93 0
57 58 89 90 0
-81 -106 0
-82 -107 0
-34 108 116 117 0
-83 -124 0
-84 -125 0
30 31 32 33 0
-85 -94 0
-86 -95 0
-85 -102 0
-86 -103 0
42 43 109 110 0
55 56 57 58 0
1 8 9 -21 0
17 18 94 95 0
-87 -92 0
-88 -93 0
94 95 96 97 0
-87 -96 0
-88 -97 0
53 54 113 114 0
-87 -116 0
-88 -117 0
6 7 104 105 0
-89 -104 0
-90 -105 0
24 25 48 49 0
34 35 -106 108 0
-91 -93 0
23 -47 -48 115 0
-92 -118 0
-93 -119 0
17 18 102 103 0
-94 -96 0
-95 -97 0
57 58 111 112 0
-94 -104 0
-95 -105 0
50 -53 75 76 0
-96 -102 0
-97 -103 0
15 16 17 18 0
-100 -111 0
-101 -112 0
102 103 113 114 0
-102 -113 0
-103 -114 0
6 7 28 29 0
-102 -124 0
-103 -125 0
36 37 111 112 0
-104 -120 0
-105 -121 0
40 41 69 70 0
46 47 -60 115 0
-107 -108 0
46 47 109 110 0
-106 -116 0
-107 -117 0
63 64 91 -92 0
-23 46 47 115 0
-108 -117 0
34 35 124 125 0
-109 -113 0
-110 -114 0
1 -8 120 121 0
-111 -120 0
-112 -121 0
63 64 104 105 0
-111 -124 0
-112 -125 0
